n = 35;
costtab =
  [|1, 8, 35, -639,
   |1, 13, 35, -1485,
   |1, 23, 35, -443,
   |1, 29, 35, -937,
   |1, 34, 35, -931,
   |1, 1, 1, 0,
   |2, 26, 30, -662,
   |2, 30, 26, -579,
   |2, 2, 2, 0,
   |3, 9, 24, -568,
   |3, 24, 9, -608,
   |3, 3, 3, 0,
   |4, 20, 32, -800,
   |4, 32, 20, -509,
   |4, 35, 20, -1204,
   |4, 35, 32, -1185,
   |4, 4, 4, 0,
   |5, 10, 22, -1133,
   |5, 22, 10, -418,
   |5, 5, 5, 0,
   |6, 25, 31, -393,
   |6, 31, 25, -364,
   |6, 6, 6, 0,
   |7, 13, 31, -666,
   |7, 31, 13, -609,
   |7, 7, 7, 0,
   |8, 13, 1, -1205,
   |8, 13, 19, -1223,
   |8, 13, 23, -1202,
   |8, 13, 34, -1225,
   |8, 19, 1, -588,
   |8, 19, 13, -609,
   |8, 19, 23, -591,
   |8, 19, 34, -610,
   |8, 23, 1, -302,
   |8, 23, 13, -281,
   |8, 23, 19, -284,
   |8, 23, 34, -279,
   |8, 34, 1, -476,
   |8, 34, 13, -499,
   |8, 34, 19, -499,
   |8, 34, 23, -475,
   |8, 8, 8, 0,
   |9, 3, 28, -572,
   |9, 28, 3, -889,
   |9, 35, 3, -1402,
   |9, 35, 28, -1402,
   |9, 9, 9, 0,
   |10, 5, 20, -1143,
   |10, 20, 5, -954,
   |10, 35, 5, -965,
   |10, 35, 20, -972,
   |10, 10, 10, 0,
   |11, 16, 17, -855,
   |11, 16, 21, -857,
   |11, 17, 16, -1295,
   |11, 17, 21, -1287,
   |11, 21, 16, -867,
   |11, 21, 17, -856,
   |11, 11, 11, 0,
   |12, 17, 27, -471,
   |12, 27, 17, -737,
   |12, 12, 12, 0,
   |13, 7, 1, -665,
   |13, 7, 8, -672,
   |13, 7, 31, -684,
   |13, 7, 34, -674,
   |13, 8, 1, -1224,
   |13, 8, 7, -1210,
   |13, 8, 31, -1199,
   |13, 8, 34, -1225,
   |13, 31, 1, -1003,
   |13, 31, 7, -1033,
   |13, 31, 8, -1009,
   |13, 31, 34, -1012,
   |13, 34, 1, -791,
   |13, 34, 7, -781,
   |13, 34, 8, -793,
   |13, 34, 31, -770,
   |13, 13, 13, 0,
   |14, 14, 14, 0,
   |15, 19, 24, -691,
   |15, 19, 30, -694,
   |15, 19, 33, -685,
   |15, 24, 19, -1327,
   |15, 24, 30, -1321,
   |15, 24, 33, -1325,
   |15, 30, 19, -1456,
   |15, 30, 24, -1448,
   |15, 30, 33, -1456,
   |15, 33, 19, -821,
   |15, 33, 24, -825,
   |15, 33, 30, -830,
   |15, 15, 15, 0,
   |16, 11, 22, -855,
   |16, 22, 11, -1058,
   |16, 16, 16, 0,
   |17, 11, 12, -1292,
   |17, 12, 11, -495,
   |17, 17, 17, 0,
   |18, 26, 31, -924,
   |18, 31, 26, -608,
   |18, 18, 18, 0,
   |19, 8, 15, -607,
   |19, 8, 34, -606,
   |19, 15, 8, -694,
   |19, 15, 34, -682,
   |19, 34, 8, -272,
   |19, 34, 15, -260,
   |19, 19, 19, 0,
   |20, 4, 10, -816,
   |20, 10, 4, -956,
   |20, 35, 4, -473,
   |20, 35, 10, -495,
   |20, 20, 20, 0,
   |21, 11, 32, -863,
   |21, 32, 11, -438,
   |21, 21, 21, 0,
   |22, 5, 16, -431,
   |22, 5, 27, -431,
   |22, 16, 5, -1058,
   |22, 16, 27, -1061,
   |22, 27, 5, -1083,
   |22, 27, 16, -1086,
   |22, 22, 22, 0,
   |23, 8, 1, -274,
   |23, 23, 23, 0,
   |24, 3, 15, -613,
   |24, 3, 25, -610,
   |24, 3, 28, -616,
   |24, 15, 3, -1329,
   |24, 15, 25, -1313,
   |24, 15, 28, -1333,
   |24, 25, 3, -1301,
   |24, 25, 15, -1288,
   |24, 25, 28, -1293,
   |24, 28, 3, -1181,
   |24, 28, 15, -1181,
   |24, 28, 25, -1167,
   |24, 24, 24, 0,
   |25, 6, 24, -415,
   |25, 6, 31, -422,
   |25, 24, 6, -1300,
   |25, 24, 31, -1294,
   |25, 31, 6, -709,
   |25, 31, 24, -695,
   |25, 25, 25, 0,
   |26, 2, 18, -672,
   |26, 2, 30, -689,
   |26, 18, 2, -919,
   |26, 18, 30, -918,
   |26, 30, 2, -1125,
   |26, 30, 18, -1107,
   |26, 26, 26, 0,
   |27, 12, 22, -770,
   |27, 22, 12, -1088,
   |27, 27, 27, 0,
   |28, 9, 24, -893,
   |28, 9, 33, -889,
   |28, 24, 9, -1180,
   |28, 24, 33, -1175,
   |28, 33, 9, -1243,
   |28, 33, 24, -1241,
   |28, 35, 9, -1102,
   |28, 35, 24, -1110,
   |28, 35, 33, -1106,
   |28, 28, 28, 0,
   |29, 30, 1, -914,
   |29, 29, 29, 0,
   |30, 2, 14, -584,
   |30, 2, 15, -592,
   |30, 2, 26, -606,
   |30, 2, 29, -573,
   |30, 14, 2, -471,
   |30, 14, 15, -494,
   |30, 14, 26, -480,
   |30, 14, 29, -488,
   |30, 15, 2, -1445,
   |30, 15, 14, -1460,
   |30, 15, 26, -1452,
   |30, 15, 29, -1450,
   |30, 26, 2, -1125,
   |30, 26, 14, -1112,
   |30, 26, 15, -1118,
   |30, 26, 29, -1094,
   |30, 29, 2, -890,
   |30, 29, 14, -917,
   |30, 29, 15, -913,
   |30, 29, 26, -891,
   |30, 30, 30, 0,
   |31, 6, 7, -380,
   |31, 6, 13, -376,
   |31, 6, 18, -389,
   |31, 6, 25, -393,
   |31, 7, 6, -615,
   |31, 7, 13, -627,
   |31, 7, 18, -626,
   |31, 7, 25, -609,
   |31, 13, 6, -1017,
   |31, 13, 7, -1032,
   |31, 13, 18, -1031,
   |31, 13, 25, -1008,
   |31, 18, 6, -615,
   |31, 18, 7, -617,
   |31, 18, 13, -617,
   |31, 18, 25, -609,
   |31, 25, 6, -709,
   |31, 25, 7, -689,
   |31, 25, 13, -683,
   |31, 25, 18, -699,
   |31, 31, 31, 0,
   |32, 4, 21, -494,
   |32, 21, 4, -409,
   |32, 32, 32, 0,
   |33, 15, 28, -833,
   |33, 28, 15, -1248,
   |33, 33, 33, 0,
   |34, 8, 1, -497,
   |34, 8, 13, -458,
   |34, 8, 19, -479,
   |34, 13, 1, -766,
   |34, 13, 8, -752,
   |34, 13, 19, -780,
   |34, 19, 1, -256,
   |34, 19, 8, -256,
   |34, 19, 13, -263,
   |34, 34, 34, 0,
   |];

